
Log started (V22.1.1.0) Wed Apr 10 16:11:58 2024

New value for mixed integer optimality gap tolerance: 0.0002
New value for time limit in seconds: 14400
New value for integrality tolerance: 0
New value for feasibility tolerance: 1e-08

Problem '/tmp/224231.1.RCCS/tmpjxy3jj5l.pyomo.lp' read.
Read time = 0.05 sec. (4.09 ticks)

Problem name         : /tmp/224231.1.RCCS/tmpjxy3jj5l.pyomo.lp
Objective sense      : Minimize
Variables            :   23694  [Nneg: 1,  Box: 22663,  Binary: 46,
                                 General Integer: 984]
Objective nonzeros   :       2
Linear constraints   :   51371  [Less: 25018,  Greater: 2728,  Equal: 23625]
  Nonzeros           :   86761
  RHS nonzeros       :    2728

Variables            : Min LB: 0.000000         Max UB: 1.000000e+10   
Objective nonzeros   : Min   : 0.1187400        Max   : 1.000000       
Linear constraints   :
  Nonzeros           : Min   : 0.02000000       Max   : 1317575.       
  RHS nonzeros       : Min   : 1.000000         Max   : 2.166667e+07   
Version identifier: 22.1.1.0 | 2022-11-28 | 9160aff4d
CPXPARAM_Simplex_Tolerances_Feasibility          1e-08
CPXPARAM_TimeLimit                               14400
CPXPARAM_MIP_Tolerances_MIPGap                   0.00020000000000000001
CPXPARAM_MIP_Tolerances_Integrality              0
Tried aggregator 2 times.
MIP Presolve eliminated 50262 rows and 22108 columns.
MIP Presolve modified 203 coefficients.
Aggregator did 548 substitutions.
Reduced MIP has 561 rows, 1038 columns, and 3537 nonzeros.
Reduced MIP has 486 binaries, 28 generals, 0 SOSs, and 0 indicators.
Presolve time = 0.02 sec. (38.84 ticks)
Found incumbent of value 9795099.464376 after 0.03 sec. (42.81 ticks)
Probing time = 0.01 sec. (21.45 ticks)
Tried aggregator 1 time.
Detecting symmetries...
MIP Presolve eliminated 13 rows and 12 columns.
MIP Presolve modified 1 coefficients.
Reduced MIP has 548 rows, 1026 columns, and 3491 nonzeros.
Reduced MIP has 486 binaries, 28 generals, 0 SOSs, and 0 indicators.
Presolve time = 0.00 sec. (3.72 ticks)
Probing time = 0.00 sec. (3.53 ticks)
Clique table members: 18.
MIP emphasis: balance optimality and feasibility.
MIP search method: dynamic search.
Parallel mode: deterministic, using up to 32 threads.
Root relaxation solution time = 0.03 sec. (16.58 ticks)

        Nodes                                         Cuts/
   Node  Left     Objective  IInf  Best Integer    Best Bound    ItCnt     Gap

*     0+    0                      9795099.4644        0.0000           100.00%
*     0+    0                      6437915.6113        0.0000           100.00%
*     0+    0                      4243600.4113        0.0000           100.00%
*     0+    0                      2049285.2113        0.0000           100.00%
*     0+    0                       959964.4513        0.0000           100.00%
      0     0    86996.4267     4   959964.4513    86996.4267      662   90.94%
*     0+    0                       184146.3809    86996.4267            52.76%
*     0+    0                       158680.1012    86996.4267            45.17%
      0     0   104188.5496     1   158680.1012      Cuts: 10      872   34.34%
*     0+    0                       105065.6357   104188.5496             0.83%
Detecting symmetries...

Repeating presolve.
Tried aggregator 2 times.
MIP Presolve eliminated 479 rows and 936 columns.
MIP Presolve modified 50 coefficients.
Aggregator did 16 substitutions.
Reduced MIP has 53 rows, 74 columns, and 233 nonzeros.
Reduced MIP has 26 binaries, 14 generals, 0 SOSs, and 0 indicators.
Presolve time = 0.00 sec. (1.08 ticks)
Probing fixed 12 vars, tightened 33 bounds.
Probing changed sense of 2 constraints.
Probing time = 0.00 sec. (0.09 ticks)
Cover probing fixed 0 vars, tightened 26 bounds.
Tried aggregator 1 time.
MIP Presolve eliminated 21 rows and 33 columns.
MIP Presolve modified 9 coefficients.
Reduced MIP has 32 rows, 41 columns, and 130 nonzeros.
Reduced MIP has 13 binaries, 6 generals, 0 SOSs, and 0 indicators.
Presolve time = 0.00 sec. (0.15 ticks)
Probing fixed 1 vars, tightened 18 bounds.
Probing time = 0.00 sec. (0.04 ticks)
Cover probing fixed 0 vars, tightened 4 bounds.
Tried aggregator 1 time.
MIP Presolve eliminated 2 rows and 3 columns.
MIP Presolve modified 6 coefficients.
Reduced MIP has 30 rows, 38 columns, and 121 nonzeros.
Reduced MIP has 12 binaries, 5 generals, 0 SOSs, and 0 indicators.
Presolve time = 0.00 sec. (0.08 ticks)
Probing fixed 0 vars, tightened 4 bounds.
Probing time = 0.00 sec. (0.03 ticks)
Tried aggregator 1 time.
Detecting symmetries...
MIP Presolve modified 4 coefficients.
Reduced MIP has 30 rows, 38 columns, and 121 nonzeros.
Reduced MIP has 12 binaries, 5 generals, 0 SOSs, and 0 indicators.
Presolve time = 0.00 sec. (0.07 ticks)
Represolve time = 0.01 sec. (19.57 ticks)
Probing time = 0.00 sec. (0.03 ticks)
Clique table members: 4.
MIP emphasis: balance optimality and feasibility.
MIP search method: dynamic search.
Parallel mode: deterministic, using up to 32 threads.
Root relaxation solution time = 0.00 sec. (0.07 ticks)

        Nodes                                         Cuts/
   Node  Left     Objective  IInf  Best Integer    Best Bound    ItCnt     Gap

*     0+    0                       105065.6357   104188.5496             0.83%
      0     0   104188.5496     1   105065.6357   104188.5496      890    0.83%
      0     0        cutoff         105065.6357                    891    0.00%
Elapsed time = 0.35 sec. (157.89 ticks, tree = 0.01 MB, solutions = 8)

Cover cuts applied:  1
Flow cuts applied:  1
Gomory fractional cuts applied:  2

Root node processing (before b&c):
  Real time             =    0.35 sec. (159.63 ticks)
Parallel b&c, 32 threads:
  Real time             =    0.00 sec. (0.00 ticks)
  Sync time (average)   =    0.00 sec.
  Wait time (average)   =    0.00 sec.
                          ------------
Total (root+branch&cut) =    0.35 sec. (159.63 ticks)

Solution pool: 8 solutions saved.

MIP - Integer optimal solution:  Objective =  1.0506563569e+05
Solution time =    0.36 sec.  Iterations = 891  Nodes = 0
Deterministic time = 159.70 ticks  (440.84 ticks/sec)


Incumbent solution written to file '/tmp/224231.1.RCCS/tmpo7b7isqv.cplex.sol'.
